************************************************************************
file with basedata            : cn343_.bas
initial value random generator: 1589033745
************************************************************************
projects                      :  1
jobs (incl. supersource/sink ):  18
horizon                       :  140
RESOURCES
  - renewable                 :  2   R
  - nonrenewable              :  3   N
  - doubly constrained        :  0   D
************************************************************************
PROJECT INFORMATION:
pronr.  #jobs rel.date duedate tardcost  MPM-Time
    1     16      0       27       13       27
************************************************************************
PRECEDENCE RELATIONS:
jobnr.    #modes  #successors   successors
   1        1          3           2   3   4
   2        3          3           6   9  14
   3        3          2           7  10
   4        3          2           5  11
   5        3          3           8  12  14
   6        3          3           7   8  15
   7        3          2          13  17
   8        3          2          13  17
   9        3          2          12  16
  10        3          2          11  13
  11        3          3          12  14  17
  12        3          1          15
  13        3          1          16
  14        3          1          16
  15        3          1          18
  16        3          1          18
  17        3          1          18
  18        1          0        
************************************************************************
REQUESTS/DURATIONS:
jobnr. mode duration  R 1  R 2  N 1  N 2  N 3
------------------------------------------------------------------------
  1      1     0       0    0    0    0    0
  2      1     4       9    0    9    2    4
         2     8       0    1    8    1    4
         3     9       7    0    8    1    3
  3      1     3       0    9    5    7    6
         2     9       7    0    5    7    5
         3    10       0    7    4    6    4
  4      1     3      10    0    3    9    7
         2     7       0    5    3    8    7
         3    10       0    4    2    4    7
  5      1     1       0    9    9    4    5
         2     1       0    9    8    4    8
         3     5       0    6    8    2    2
  6      1     8       0    2    3    8    9
         2     8       5    0    3    8    9
         3    10       4    0    3    8    9
  7      1     3       0    2    6    5   10
         2     6       0    1    4    5    9
         3    10       0    1    1    5    7
  8      1     5       0    8    6    2    4
         2     5       9    0    6    2    4
         3    10       5    0    6    1    3
  9      1     3       0    5    4    8    8
         2     6       0    2    3    8    7
         3     8      10    0    2    8    5
 10      1     2       0    8    9    5    8
         2     6       5    0    9    5    7
         3    10       0    5    8    5    6
 11      1     8       0    1    9    4    5
         2     8       0    1    8    3    7
         3     8       0    3    6    3    6
 12      1     3       0    7    5    9   10
         2     8       0    7    4    6   10
         3     8       0    6    5    7   10
 13      1     7       6    0    6    7   10
         2     9       6    0    5    6   10
         3    10       0    4    2    5   10
 14      1     2       8    0   10    8    7
         2     3       6    0    7    6    5
         3     8       2    0    6    6    2
 15      1     3       0    7    9    8    5
         2     3       3    0    8    8    5
         3     9       0    7    5    3    4
 16      1     3       0    5    5    7    7
         2     3       3    0    5    8    7
         3     7       0    6    4    5    5
 17      1     2       0    4    8    3    3
         2     5       0    4    6    2    3
         3     8       0    3    5    2    2
 18      1     0       0    0    0    0    0
************************************************************************
RESOURCEAVAILABILITIES:
  R 1  R 2  N 1  N 2  N 3
   20   14   90   84   99
************************************************************************
